Minimize
  obj: x0 + x1 + x2 + x3 + x4 + x5 + x6 + x7 + x8 + x9

Subject To
  c0: x0 + x1 + x2 + x3 + x4 + x5 + x7 + x9 = 66
  c1: x0 + x1 + x2 + x4 + x5 + x6 + x7 + x9 = 71
  c2: x1 + x3 + x4 + x6 + x9 = 44
  c3: x0 + x1 + x2 + x3 + x4 + x6 = 38
  c4: x1 + x2 + x3 + x5 + x6 + x7 + x9 = 54
  c5: x0 + x1 + x2 + x3 + x8 + x9 = 41
  c6: x3 + x5 + x6 + x9 = 30
  c7: x0 + x2 + x6 + x9 = 27
  c8: x1 + x3 + x6 + x8 = 28

Bounds
  x0 >= 0
  x1 >= 0
  x2 >= 0
  x3 >= 0
  x4 >= 0
  x5 >= 0
  x6 >= 0
  x7 >= 0
  x8 >= 0
  x9 >= 0

Generals
  x0 x1 x2 x3 x4 x5 x6 x7 x8 x9

End
